
Gurobi 12.0.3 (linux64) logging started Fri Mar 27 23:27:04 2026

Set parameter LogFile to value "/home/solar-wind/WT_Solar_results_bigM100000_thread4/case24_ieee_rts_theta0.15_epsilon0.1_gurobi_seed40000_num_gen38_N_WDR300_load_scaling_factor1_EIFICA_T24_num_Solar5_num_WT10.txt"
Gurobi Optimizer version 12.0.3 build v12.0.3rc0 (linux64 - "Ubuntu 22.04.5 LTS")

CPU model: Intel(R) Xeon(R) Platinum 8378A CPU @ 3.00GHz, instruction set [SSE2|AVX|AVX2|AVX512]
Thread count: 32 physical cores, 64 logical processors, using up to 4 threads

Non-default parameters:
TimeLimit  14400
MIPGap  0.001
Seed  40000
Threads  4

Academic license 2721591 - for non-commercial use only - registered to fa___@mails.neu.edu.cn
Optimize a model with 878228 rows, 2125 columns and 75515848 nonzeros
Model fingerprint: 0x925a69ef
Model has 912 quadratic objective terms
Coefficient statistics:
  Matrix range     [3e-07, 7e+01]
  Objective range  [2e+01, 6e+01]
  QObjective range [4e-03, 2e-02]
  Bounds range     [0e+00, 0e+00]
  RHS range        [7e-02, 1e+03]
Presolve removed 602343 rows and 0 columns (presolve time = 6s)...
Presolve removed 603217 rows and 0 columns
Presolve time: 8.00s
Presolved: 275011 rows, 2999 columns, 5887016 nonzeros
Presolved model has 912 quadratic objective terms
Elapsed ordering time = 8s
Elapsed ordering time = 27s
Ordering time: 56.68s
Elapsed ordering time = 59s
Elapsed ordering time = 60s
Elapsed ordering time = 70s
Elapsed ordering time = 82s
Elapsed ordering time = 85s
Elapsed ordering time = 93s
Elapsed ordering time = 95s
Elapsed ordering time = 104s
Elapsed ordering time = 105s
Elapsed ordering time = 116s
Elapsed ordering time = 120s
Ordering time: 125.06s

Barrier statistics:
 Dense cols : 1155
 AA' NZ     : 4.350e+08
 Factor NZ  : 1.202e+09 (roughly 10.0 GB of memory)
 Factor Ops : 1.277e+13 (roughly 70 seconds per iteration)
 Threads    : 4

                  Objective                Residual
Iter       Primal          Dual         Primal    Dual     Compl     Time
   0   5.83274507e+08 -3.29410875e+08  3.80e+04 1.00e+03  9.91e+05   302s
   1   5.48105753e+08 -3.00686804e+08  3.65e+04 9.60e+02  9.52e+05   302s
   2   5.42883810e+08 -3.66763776e+08  3.63e+04 9.54e+02  9.48e+05   303s
   3   5.05533996e+08 -3.61317349e+08  3.46e+04 9.09e+02  9.05e+05   304s
   4   4.61278108e+08 -5.08629865e+08  3.26e+04 8.55e+02  8.70e+05   304s
   5   4.06857826e+08 -5.75733213e+08  3.01e+04 7.85e+02  8.22e+05   305s
   6   3.65465362e+08 -5.91210339e+08  2.81e+04 7.29e+02  7.64e+05   305s
   7   3.26851826e+08 -6.65413918e+08  2.61e+04 6.74e+02  7.42e+05   305s
   8   2.90594088e+08 -6.91154778e+08  2.40e+04 6.20e+02  6.84e+05   305s
   9   2.59680236e+08 -7.14427198e+08  2.22e+04 5.72e+02  6.32e+05   306s
  10   2.33050928e+08 -7.36094062e+08  2.06e+04 5.28e+02  5.84e+05   306s
  11   2.08503189e+08 -7.60789768e+08  1.91e+04 4.86e+02  5.39e+05   306s
  12   1.86445378e+08 -7.85672791e+08  1.76e+04 4.47e+02  4.96e+05   306s
  13   1.67163846e+08 -8.31655584e+08  1.63e+04 4.11e+02  4.69e+05   307s
  14   1.46017151e+08 -8.62762107e+08  1.47e+04 3.70e+02  4.22e+05   307s
  15   1.27201850e+08 -8.88532516e+08  1.32e+04 3.31e+02  3.79e+05   307s
  16   1.12744466e+08 -9.20550435e+08  1.20e+04 3.01e+02  3.45e+05   307s
  17   9.96439858e+07 -9.48907656e+08  1.09e+04 2.72e+02  3.12e+05   307s
  18   8.63015985e+07 -9.73536681e+08  9.72e+03 2.41e+02  2.78e+05   308s
  19   7.56662811e+07 -9.97045911e+08  8.71e+03 2.15e+02  2.49e+05   308s
  20   6.63827479e+07 -1.02006455e+09  7.79e+03 1.92e+02  2.23e+05   308s
  21   5.77981991e+07 -1.04595372e+09  6.93e+03 1.70e+02  1.98e+05   308s
  22   4.82295819e+07 -1.07430245e+09  5.93e+03 1.45e+02  1.69e+05   309s
  23   4.22698094e+07 -1.09196481e+09  5.28e+03 1.29e+02  1.50e+05   309s
  24   3.46434890e+07 -1.11322236e+09  4.43e+03 1.07e+02  1.26e+05   309s
  25   2.79458491e+07 -1.12565645e+09  4.16e+03 8.78e+01  1.04e+05   309s
  26   2.20813476e+07 -1.12933638e+09  3.86e+03 7.02e+01  8.37e+04   309s
  27   6.22275068e+06 -1.10326226e+09  7.05e+03 1.97e+01  3.86e+04   309s
  28   4.70058994e+06 -9.94936793e+08  3.97e+03 1.44e+01  2.87e+04   310s
  29   4.15682654e+06 -9.50317384e+08  3.40e+03 1.26e+01  2.51e+04   310s
  30   3.46613665e+06 -8.86280711e+08  2.71e+03 1.02e+01  2.05e+04   310s
  31   2.86745228e+06 -8.20711746e+08  2.22e+03 8.17e+00  1.66e+04   310s
  32   2.32823708e+06 -7.49678594e+08  1.78e+03 6.35e+00  1.30e+04   310s
  33   1.83386173e+06 -6.70971847e+08  1.35e+03 4.68e+00  9.74e+03   311s
  34   1.53009729e+06 -6.38210871e+08  9.25e+02 3.62e+00  8.01e+03   311s
  35   1.28139258e+06 -5.68169722e+08  6.74e+02 2.74e+00  6.14e+03   311s
  36   9.62314106e+05 -5.58392456e+08  2.69e+02 1.47e+00  4.30e+03   311s
  37   8.58834478e+05 -4.65557276e+08  1.86e+02 1.03e+00  3.08e+03   312s
  38   7.57708277e+05 -3.88958415e+08  1.07e+02 5.78e-01  2.11e+03   312s
  39   7.05686122e+05 -3.01996398e+08  6.13e+01 3.30e-01  1.43e+03   313s
  40   6.87803054e+05 -2.75524719e+08  4.27e+01 2.31e-01  1.22e+03   314s
  41   6.81233001e+05 -2.48630167e+08  3.50e+01 1.89e-01  1.07e+03   315s
  42   6.77618969e+05 -2.28125571e+08  2.95e+01 1.60e-01  9.58e+02   316s
  43   6.75288061e+05 -2.11898429e+08  2.56e+01 1.38e-01  8.76e+02   317s
  44   6.74507599e+05 -2.04422385e+08  2.38e+01 1.29e-01  8.39e+02   318s
  45   6.73533839e+05 -1.90699155e+08  2.09e+01 1.13e-01  7.76e+02   320s
  46   6.72946813e+05 -1.40356956e+08  1.35e+01 7.37e-02  5.57e+02   321s
  47   6.73401219e+05 -1.20967870e+08  1.09e+01 5.95e-02  4.78e+02   323s
  48   6.74596369e+05 -8.77179995e+07  6.16e+00 3.36e-02  3.34e+02   354s
  49   6.75664481e+05 -1.39609832e+07  6.32e-01 3.44e-03  5.29e+01   385s
  50   6.71077532e+05  1.70677280e+05  1.88e-02 2.10e-01  1.80e+00   415s
  51   6.18395075e+05  4.51161094e+05  1.13e-03 1.11e-04  6.00e-01   448s
  52   5.98906038e+05  5.62670105e+05  1.76e-04 1.78e-05  1.30e-01   482s
  53   5.94841871e+05  5.73732220e+05  8.84e-05 8.94e-06  7.57e-02   536s
  54   5.91524491e+05  5.81788706e+05  1.92e-05 1.94e-06  3.49e-02   591s
  55   5.90347838e+05  5.86218931e+05  5.45e-06 5.51e-07  1.48e-02   649s
  56   5.89854077e+05  5.88006125e+05  4.92e-07 4.98e-08  6.63e-03   708s
  57   5.89714207e+05  5.88584815e+05  2.33e-08 2.37e-09  4.05e-03   767s
  58   5.89584396e+05  5.89223148e+05  4.57e-10 2.85e-11  1.30e-03   827s
  59   5.89554340e+05  5.89367436e+05  5.72e-10 1.35e-11  6.70e-04   886s
  60   5.89545633e+05  5.89409572e+05  3.71e-10 1.45e-11  4.88e-04   941s
  61   5.89532245e+05  5.89473950e+05  1.54e-10 4.32e-12  2.09e-04   995s
  62   5.89525443e+05  5.89506758e+05  5.06e-10 2.96e-11  6.70e-05  1049s
  63   5.89522881e+05  5.89519060e+05  1.09e-09 2.92e-12  1.37e-05  1103s
  64   5.89522222e+05  5.89522204e+05  6.64e-10 3.42e-12  6.33e-08  1157s
  65   5.89522220e+05  5.89522216e+05  4.43e-07 6.53e-10  1.13e-08  1212s
  66   5.89522219e+05  5.89522218e+05  6.03e-07 1.32e-09  4.36e-09  1267s

Barrier solved model in 66 iterations and 1267.04 seconds (1586.56 work units)
Optimal objective 5.89522219e+05

